120
150
50
50
50
57
47
46
57
45
59
44
48
54
47
49
55
40
60
40
55
50
55
46
50
53
44
46
47
54
42
54
53
56
41
60
45
53
55
60
45
50
54
55
41
60
46
54
60
44
47
46
57
46
46
46
57
57
48
60
40
40
59
46
47
45
52
46
60
46
52
45
55
42
53
50
54
46
48
60
55
44
60
60
51
60
48
49
41
60
59
41
50
55
46
50
50
50
49
45
45
47
50
57
43
53
50
49
41
60
59
45
46
44
44
50
44
56
53
44
53
42
